NAME: ch130.opt.tour
COMMENT: 
TYPE: TOUR
DIMENSION: 130
TOUR_SECTION
126
114
3
83
30
59
121
78
90
125
85
66
28
115
62
105
112
117
39
71
130
50
2
118
80
46
20
93
37
22
47
40
23
122
55
60
51
42
44
4
35
54
17
31
34
27
19
100
116
24
15
29
95
79
87
12
81
103
77
94
89
110
98
68
63
70
97
26
7
88
86
69
64
124
129
61
109
76
11
5
45
16
128
41
1
127
107
104
43
48
25
32
113
36
84
119
111
123
101
82
57
9
56
65
52
75
74
99
73
92
38
106
58
49
53
120
72
91
6
102
10
14
67
96
13
33
21
18
8
108
-1
EOF